750
1000 1000
1 700 576
2 698 138
3 698 516
4 697 537
5 696 244
6 696 630
7 696 222
8 695 173
9 693 61
10 693 470
11 692 474
12 691 775
13 691 827
14 691 541
15 690 101
16 689 456
17 689 685
18 689 5
19 688 144
20 687 266
21 687 1
22 687 974
23 684 714
24 683 215
25 683 297
26 680 837
27 679 968
28 677 886
29 675 934
30 675 789
31 674 425
32 673 341
33 673 531
34 672 723
35 670 119
36 670 143
37 669 28
38 667 743
39 667 446
40 666 922
41 665 77
42 664 194
43 663 299
44 662 183
45 662 10
46 660 176
47 660 372
48 659 112
49 659 257
50 657 226
51 657 208
52 657 814
53 655 9
54 654 538
55 652 716
56 652 529
57 652 788
58 651 423
59 651 500
60 649 727
61 649 112
62 648 482
63 648 748
64 647 619
65 646 641
66 646 824
67 645 277
68 645 196
69 644 28
70 643 803
71 643 805
72 642 8
73 641 841
74 641 209
75 640 596
76 640 305
77 639 465
78 637 2
79 637 341
80 635 551
81 634 391
82 634 998
83 634 438
84 634 886
85 632 81
86 632 637
87 632 93
88 632 401
89 632 950
90 631 763
91 630 947
92 630 625
93 627 51
94 627 928
95 626 826
96 625 445
97 625 288
98 624 645
99 624 237
100 623 604
101 623 54
102 622 293
103 622 711
104 621 652
105 621 956
106 621 404
107 619 102
108 619 257
109 616 198
110 616 728
111 615 202
112 615 982
113 615 701
114 615 343
115 614 637
116 613 733
117 611 856
118 611 766
119 611 474
120 611 790
121 610 584
122 609 777
123 609 850
124 609 51
125 608 732
126 608 726
127 607 598
128 607 488
129 606 788
130 606 728
131 605 980
132 604 284
133 603 881
134 603 236
135 603 508
136 603 442
137 602 794
138 602 211
139 602 576
140 602 585
141 601 490
142 601 605
143 601 284
144 601 941
145 600 476
146 600 843
147 598 852
148 598 664
149 595 732
150 594 572
151 594 887
152 592 672
153 591 999
154 591 483
155 591 220
156 591 16
157 591 799
158 591 203
159 590 167
160 590 138
161 589 593
162 588 636
163 588 745
164 587 841
165 587 996
166 587 230
167 586 382
168 585 783
169 585 179
170 585 738
171 585 317
172 584 795
173 582 907
174 582 104
175 582 518
176 581 964
177 581 789
178 581 609
179 581 949
180 580 613
181 580 603
182 580 330
183 579 535
184 578 380
185 578 907
186 576 761
187 575 990
188 574 557
189 573 230
190 573 536
191 571 268
192 570 442
193 569 960
194 567 250
195 565 155
196 560 207
197 560 298
198 560 34
199 559 721
200 559 24
201 558 472
202 558 335
203 557 657
204 557 334
205 557 366
206 556 189
207 555 326
208 555 650
209 553 7
210 553 745
211 552 898
212 551 104
213 551 762
214 550 111
215 550 756
216 547 697
217 546 461
218 546 825
219 545 80
220 545 930
221 544 835
222 544 416
223 543 899
224 543 374
225 542 527
226 542 2
227 541 796
228 541 40
229 539 287
230 539 456
231 538 962
232 538 115
233 537 715
234 536 955
235 535 341
236 534 411
237 534 995
238 534 440
239 534 251
240 533 569
241 532 85
242 532 851
243 529 60
244 529 273
245 528 569
246 528 912
247 527 103
248 527 820
249 526 760
250 526 634
251 525 101
252 525 477
253 524 34
254 523 558
255 523 343
256 520 456
257 520 24
258 519 427
259 518 62
260 517 329
261 517 602
262 517 766
263 516 614
264 515 109
265 515 673
266 515 795
267 515 958
268 515 678
269 515 638
270 514 752
271 514 967
272 513 623
273 512 841
274 512 789
275 511 924
276 511 452
277 510 425
278 510 782
279 509 306
280 509 318
281 508 382
282 508 497
283 507 959
284 507 87
285 507 896
286 506 928
287 506 167
288 506 972
289 505 624
290 505 842
291 504 619
292 502 813
293 502 267
294 501 290
295 498 851
296 498 723
297 498 109
298 497 272
299 497 245
300 496 891
301 495 447
302 495 411
303 494 36
304 491 141
305 491 918
306 491 710
307 490 959
308 490 404
309 490 71
310 489 901
311 489 822
312 489 973
313 489 959
314 489 955
315 488 462
316 487 507
317 486 241
318 485 174
319 484 324
320 484 610
321 482 459
322 482 696
323 481 811
324 481 254
325 481 304
326 481 874
327 481 211
328 481 308
329 481 307
330 479 588
331 478 135
332 477 96
333 477 363
334 477 826
335 476 316
336 476 11
337 476 886
338 475 969
339 475 581
340 473 396
341 472 447
342 470 700
343 470 646
344 469 55
345 468 580
346 468 72
347 468 444
348 468 94
349 467 403
350 467 72
351 467 564
352 466 916
353 465 625
354 463 412
355 463 903
356 462 578
357 461 322
358 458 247
359 457 562
360 457 770
361 457 310
362 457 597
363 454 418
364 451 87
365 451 136
366 450 633
367 450 309
368 449 986
369 449 327
370 448 780
371 448 839
372 448 652
373 448 390
374 447 830
375 447 549
376 446 978
377 445 171
378 445 536
379 444 670
380 443 141
381 443 292
382 443 916
383 441 12
384 440 370
385 440 525
386 437 534
387 437 38
388 437 323
389 436 670
390 436 255
391 435 750
392 434 224
393 434 998
394 433 867
395 433 459
396 433 707
397 432 694
398 430 633
399 430 206
400 430 26
401 430 707
402 428 165
403 427 363
404 426 452
405 426 900
406 425 738
407 424 432
408 424 846
409 422 684
410 422 903
411 422 212
412 422 806
413 422 82
414 420 849
415 419 832
416 419 213
417 418 602
418 417 231
419 417 360
420 416 545
421 415 754
422 413 420
423 412 285
424 410 391
425 410 499
426 407 331
427 407 398
428 407 118
429 407 568
430 406 829
431 406 409
432 406 146
433 405 998
434 404 953
435 404 975
436 403 194
437 402 365
438 402 764
439 402 40
440 401 102
441 400 899
442 399 908
443 399 18
444 397 456
445 397 709
446 397 646
447 395 992
448 394 36
449 394 841
450 393 359
451 393 291
452 393 874
453 392 345
454 391 746
455 391 764
456 390 830
457 390 620
458 389 56
459 388 969
460 388 776
461 387 630
462 387 113
463 386 311
464 385 387
465 385 241
466 384 345
467 383 871
468 383 114
469 382 6
470 382 919
471 382 286
472 381 563
473 381 600
474 381 541
475 380 968
476 379 668
477 378 551
478 378 643
479 377 22
480 377 339
481 376 680
482 375 985
483 375 434
484 375 46
485 375 192
486 373 509
487 373 714
488 373 128
489 371 408
490 370 713
491 369 870
492 369 542
493 368 787
494 368 412
495 367 32
496 367 815
497 366 581
498 366 883
499 366 385
500 365 838
501 365 629
502 364 115
503 364 852
504 364 684
505 363 226
506 363 596
507 363 594
508 362 709
509 361 561
510 361 570
511 361 844
512 361 752
513 360 368
514 360 809
515 360 778
516 357 956
517 357 720
518 356 428
519 353 951
520 352 753
521 352 337
522 351 152
523 351 998
524 351 937
525 351 768
526 350 889
527 350 852
528 350 715
529 348 978
530 348 633
531 348 285
532 347 423
533 346 499
534 346 545
535 345 148
536 345 283
537 345 772
538 345 550
539 344 773
540 342 292
541 337 536
542 337 545
543 337 684
544 335 540
545 335 449
546 333 536
547 333 240
548 333 731
549 332 701
550 332 651
551 331 865
552 330 907
553 330 4
554 329 411
555 329 557
556 329 49
557 329 182
558 328 936
559 327 627
560 326 699
561 325 488
562 324 128
563 323 323
564 323 34
565 322 433
566 322 956
567 321 641
568 321 885
569 321 240
570 321 330
571 321 502
572 320 286
573 318 431
574 317 603
575 316 390
576 316 489
577 315 433
578 315 620
579 315 659
580 314 572
581 314 550
582 313 297
583 313 185
584 313 396
585 312 635
586 312 822
587 311 673
588 309 821
589 307 502
590 307 528
591 305 151
592 305 853
593 304 630
594 303 25
595 303 857
596 302 540
597 301 698
598 301 733
599 300 372
600 300 266
601 299 117
602 296 15
603 296 930
604 295 990
605 293 728
606 293 770
607 293 189
608 291 336
609 291 8
610 290 659
611 289 761
612 288 550
613 287 622
614 286 75
615 286 752
616 286 515
617 285 558
618 285 769
619 283 379
620 282 106
621 281 306
622 280 131
623 280 31
624 279 880
625 278 604
626 276 532
627 276 394
628 276 549
629 275 747
630 274 35
631 274 792
632 272 676
633 272 309
634 270 695
635 269 765
636 269 652
637 269 260
638 268 168
639 267 760
640 263 393
641 261 305
642 260 258
643 260 397
644 260 732
645 259 123
646 258 578
647 258 920
648 258 742
649 256 577
650 254 676
651 254 328
652 253 640
653 252 317
654 252 301
655 251 666
656 251 808
657 251 265
658 250 92
659 249 173
660 249 353
661 247 665
662 247 459
663 245 928
664 244 220
665 243 531
666 243 71
667 243 443
668 242 126
669 242 620
670 240 340
671 240 378
672 239 717
673 239 117
674 238 358
675 238 800
676 238 248
677 236 463
678 236 286
679 234 72
680 233 356
681 233 289
682 233 665
683 233 587
684 232 967
685 232 192
686 230 483
687 230 757
688 230 12
689 229 558
690 229 134
691 228 963
692 227 176
693 227 671
694 227 978
695 227 3
696 226 386
697 226 977
698 226 824
699 226 718
700 225 769
701 225 17
702 225 533
703 224 853
704 223 615
705 223 267
706 223 449
707 223 310
708 221 954
709 220 328
710 220 110
711 220 417
712 220 67
713 218 161
714 218 399
715 217 852
716 217 610
717 216 138
718 216 420
719 215 983
720 214 480
721 213 747
722 213 990
723 212 815
724 212 70
725 212 795
726 212 524
727 211 295
728 210 667
729 210 826
730 210 791
731 210 826
732 210 842
733 209 619
734 207 950
735 207 520
736 207 974
737 207 110
738 207 734
739 206 416
740 206 62
741 204 167
742 204 489
743 204 491
744 202 70
745 202 546
746 202 244
747 202 623
748 201 410
749 200 663
750 200 875
